c Generated map
c Size: 12 * 12, weights in range: 1 to 10, walls: False, with ratio 0.0
c dim 1 of 5
c
p sp 144 264
c graph contains 144 nodes and 264 arcs
c
a 1 13 6
a 13 1 6
a 1 2 1
a 2 1 1
a 2 14 3
a 14 2 3
a 2 3 6
a 3 2 6
a 3 15 10
a 15 3 10
a 3 4 2
a 4 3 2
a 4 16 3
a 16 4 3
a 4 5 3
a 5 4 3
a 5 17 8
a 17 5 8
a 5 6 5
a 6 5 5
a 6 18 7
a 18 6 7
a 6 7 2
a 7 6 2
a 7 19 2
a 19 7 2
a 7 8 7
a 8 7 7
a 8 20 10
a 20 8 10
a 8 9 9
a 9 8 9
a 9 21 1
a 21 9 1
a 9 10 1
a 10 9 1
a 10 22 7
a 22 10 7
a 10 11 5
a 11 10 5
a 11 23 1
a 23 11 1
a 11 12 8
a 12 11 8
a 12 24 9
a 24 12 9
a 13 25 10
a 25 13 10
a 13 14 5
a 14 13 5
a 14 26 4
a 26 14 4
a 14 15 5
a 15 14 5
a 15 27 1
a 27 15 1
a 15 16 6
a 16 15 6
a 16 28 2
a 28 16 2
a 16 17 8
a 17 16 8
a 17 29 1
a 29 17 1
a 17 18 10
a 18 17 10
a 18 30 8
a 30 18 8
a 18 19 8
a 19 18 8
a 19 31 2
a 31 19 2
a 19 20 1
a 20 19 1
a 20 32 5
a 32 20 5
a 20 21 9
a 21 20 9
a 21 33 7
a 33 21 7
a 21 22 4
a 22 21 4
a 22 34 2
a 34 22 2
a 22 23 3
a 23 22 3
a 23 35 4
a 35 23 4
a 23 24 3
a 24 23 3
a 24 36 4
a 36 24 4
a 25 37 3
a 37 25 3
a 25 26 6
a 26 25 6
a 26 38 2
a 38 26 2
a 26 27 6
a 27 26 6
a 27 39 1
a 39 27 1
a 27 28 7
a 28 27 7
a 28 40 3
a 40 28 3
a 28 29 7
a 29 28 7
a 29 41 8
a 41 29 8
a 29 30 8
a 30 29 8
a 30 42 7
a 42 30 7
a 30 31 7
a 31 30 7
a 31 43 2
a 43 31 2
a 31 32 5
a 32 31 5
a 32 44 6
a 44 32 6
a 32 33 8
a 33 32 8
a 33 45 9
a 45 33 9
a 33 34 10
a 34 33 10
a 34 46 7
a 46 34 7
a 34 35 5
a 35 34 5
a 35 47 4
a 47 35 4
a 35 36 3
a 36 35 3
a 36 48 1
a 48 36 1
a 37 49 2
a 49 37 2
a 37 38 4
a 38 37 4
a 38 50 2
a 50 38 2
a 38 39 4
a 39 38 4
a 39 51 1
a 51 39 1
a 39 40 8
a 40 39 8
a 40 52 3
a 52 40 3
a 40 41 6
a 41 40 6
a 41 53 4
a 53 41 4
a 41 42 8
a 42 41 8
a 42 54 4
a 54 42 4
a 42 43 8
a 43 42 8
a 43 55 7
a 55 43 7
a 43 44 1
a 44 43 1
a 44 56 1
a 56 44 1
a 44 45 1
a 45 44 1
a 45 57 6
a 57 45 6
a 45 46 1
a 46 45 1
a 46 58 4
a 58 46 4
a 46 47 7
a 47 46 7
a 47 59 9
a 59 47 9
a 47 48 4
a 48 47 4
a 48 60 6
a 60 48 6
a 49 61 6
a 61 49 6
a 49 50 5
a 50 49 5
a 50 62 9
a 62 50 9
a 50 51 4
a 51 50 4
a 51 63 3
a 63 51 3
a 51 52 1
a 52 51 1
a 52 64 6
a 64 52 6
a 52 53 10
a 53 52 10
a 53 65 3
a 65 53 3
a 53 54 1
a 54 53 1
a 54 66 6
a 66 54 6
a 54 55 6
a 55 54 6
a 55 67 4
a 67 55 4
a 55 56 4
a 56 55 4
a 56 68 6
a 68 56 6
a 56 57 5
a 57 56 5
a 57 69 5
a 69 57 5
a 57 58 3
a 58 57 3
a 58 70 2
a 70 58 2
a 58 59 3
a 59 58 3
a 59 71 3
a 71 59 3
a 59 60 8
a 60 59 8
a 60 72 5
a 72 60 5
a 61 73 6
a 73 61 6
a 61 62 8
a 62 61 8
a 62 74 9
a 74 62 9
a 62 63 8
a 63 62 8
a 63 75 6
a 75 63 6
a 63 64 3
a 64 63 3
a 64 76 9
a 76 64 9
a 64 65 10
a 65 64 10
a 65 77 7
a 77 65 7
a 65 66 1
a 66 65 1
a 66 78 2
a 78 66 2
a 66 67 10
a 67 66 10
a 67 79 4
a 79 67 4
a 67 68 4
a 68 67 4
a 68 80 8
a 80 68 8
a 68 69 9
a 69 68 9
a 69 81 5
a 81 69 5
a 69 70 7
a 70 69 7
a 70 82 10
a 82 70 10
a 70 71 4
a 71 70 4
a 71 83 7
a 83 71 7
a 71 72 3
a 72 71 3
a 72 84 4
a 84 72 4
a 73 85 5
a 85 73 5
a 73 74 6
a 74 73 6
a 74 86 9
a 86 74 9
a 74 75 2
a 75 74 2
a 75 87 10
a 87 75 10
a 75 76 1
a 76 75 1
a 76 88 1
a 88 76 1
a 76 77 9
a 77 76 9
a 77 89 6
a 89 77 6
a 77 78 1
a 78 77 1
a 78 90 1
a 90 78 1
a 78 79 8
a 79 78 8
a 79 91 8
a 91 79 8
a 79 80 1
a 80 79 1
a 80 92 6
a 92 80 6
a 80 81 8
a 81 80 8
a 81 93 1
a 93 81 1
a 81 82 10
a 82 81 10
a 82 94 3
a 94 82 3
a 82 83 5
a 83 82 5
a 83 95 10
a 95 83 10
a 83 84 3
a 84 83 3
a 84 96 10
a 96 84 10
a 85 97 2
a 97 85 2
a 85 86 2
a 86 85 2
a 86 98 3
a 98 86 3
a 86 87 3
a 87 86 3
a 87 99 1
a 99 87 1
a 87 88 8
a 88 87 8
a 88 100 8
a 100 88 8
a 88 89 4
a 89 88 4
a 89 101 7
a 101 89 7
a 89 90 3
a 90 89 3
a 90 102 7
a 102 90 7
a 90 91 7
a 91 90 7
a 91 103 1
a 103 91 1
a 91 92 9
a 92 91 9
a 92 104 10
a 104 92 10
a 92 93 3
a 93 92 3
a 93 105 5
a 105 93 5
a 93 94 1
a 94 93 1
a 94 106 9
a 106 94 9
a 94 95 2
a 95 94 2
a 95 107 5
a 107 95 5
a 95 96 3
a 96 95 3
a 96 108 1
a 108 96 1
a 97 109 9
a 109 97 9
a 97 98 6
a 98 97 6
a 98 110 6
a 110 98 6
a 98 99 1
a 99 98 1
a 99 111 7
a 111 99 7
a 99 100 1
a 100 99 1
a 100 112 6
a 112 100 6
a 100 101 10
a 101 100 10
a 101 113 6
a 113 101 6
a 101 102 6
a 102 101 6
a 102 114 4
a 114 102 4
a 102 103 5
a 103 102 5
a 103 115 2
a 115 103 2
a 103 104 8
a 104 103 8
a 104 116 5
a 116 104 5
a 104 105 4
a 105 104 4
a 105 117 10
a 117 105 10
a 105 106 2
a 106 105 2
a 106 118 9
a 118 106 9
a 106 107 6
a 107 106 6
a 107 119 1
a 119 107 1
a 107 108 3
a 108 107 3
a 108 120 5
a 120 108 5
a 109 121 5
a 121 109 5
a 109 110 3
a 110 109 3
a 110 122 7
a 122 110 7
a 110 111 9
a 111 110 9
a 111 123 5
a 123 111 5
a 111 112 2
a 112 111 2
a 112 124 10
a 124 112 10
a 112 113 2
a 113 112 2
a 113 125 6
a 125 113 6
a 113 114 2
a 114 113 2
a 114 126 7
a 126 114 7
a 114 115 1
a 115 114 1
a 115 127 7
a 127 115 7
a 115 116 8
a 116 115 8
a 116 128 7
a 128 116 7
a 116 117 7
a 117 116 7
a 117 129 10
a 129 117 10
a 117 118 8
a 118 117 8
a 118 130 8
a 130 118 8
a 118 119 2
a 119 118 2
a 119 131 8
a 131 119 8
a 119 120 5
a 120 119 5
a 120 132 6
a 132 120 6
a 121 133 8
a 133 121 8
a 121 122 7
a 122 121 7
a 122 134 2
a 134 122 2
a 122 123 6
a 123 122 6
a 123 135 2
a 135 123 2
a 123 124 7
a 124 123 7
a 124 136 9
a 136 124 9
a 124 125 4
a 125 124 4
a 125 137 5
a 137 125 5
a 125 126 9
a 126 125 9
a 126 138 8
a 138 126 8
a 126 127 10
a 127 126 10
a 127 139 6
a 139 127 6
a 127 128 9
a 128 127 9
a 128 140 10
a 140 128 10
a 128 129 1
a 129 128 1
a 129 141 6
a 141 129 6
a 129 130 9
a 130 129 9
a 130 142 8
a 142 130 8
a 130 131 4
a 131 130 4
a 131 143 10
a 143 131 10
a 131 132 4
a 132 131 4
a 132 144 3
a 144 132 3
a 133 134 10
a 134 133 10
a 134 135 3
a 135 134 3
a 135 136 10
a 136 135 10
a 136 137 5
a 137 136 5
a 137 138 9
a 138 137 9
a 138 139 9
a 139 138 9
a 139 140 8
a 140 139 8
a 140 141 7
a 141 140 7
a 141 142 3
a 142 141 3
a 142 143 10
a 143 142 10
a 143 144 3
a 144 143 3
